51,1
163,39
82,33
197,49
33,94
22,75
91,92
99,95
76,24
166,8
5,4
55,71
7,11
114,81
151,77
132,40
101,28
181,2
62,53
114,5
119,5
194,63
169,8
194,50
56,41
62,4
107,29
153,24
71,100
174,25
184,2
10,34
152,85
61,8
135,1
89,52
163,22
180,86
77,27
152,89
154,40
193,81
177,29
115,47
16,53
109,27
129,68
99,81
147,74
95,89
